SCIP version 5.0.0 [precision: 8 byte] [memory: block] [mode: optimized] [LP solver: NONE] [GitHash: 3bbd232]
Copyright (C) 2002-2017 Konrad-Zuse-Zentrum fuer Informationstechnik Berlin (ZIB)

External codes: 
  Readline EditLine w  GNU library for command line editing (gnu.org/s/readline)
  CppAD 20160000.1     Algorithmic Differentiation of C++ algorithms developed by B. Bell (www.coin-or.org/CppAD)
  ZLIB 1.2.5           General purpose compression library by J. Gailly and M. Adler (zlib.net)
  GMP 6.1.2            GNU Multiple Precision Arithmetic Library developed by T. Granlund (gmplib.org)

user parameter file <scip.set> not found - using default parameters

read problem <../../Split_data/output/breast/9/0_sample_breast.logreg>
============

File name	:	../../Split_data/output/breast/9/0_sample_breast.logreg
Problem name 	:	0_sample_breast
Number of data	:	155
Number of var	:	33
The given data has linear dependence
17 sets of column vector are linearly dependent:
elements are all 0
elements are all 0
elements are all 0
elements are all 0
elements are all 0
elements are all 0

[dim=1] time: 0.002539
[dim=2] time: 0.004969
[dim=3] time: 0.007284
[dim=4] time: 0.009422
[dim=5] time: 0.011529
[dim=6] time: 0.01359
[dim=7] Time of forward = 0.015512sec.
AIC: 142.653
k: 6

[dim=16] time: 0.004829
[dim=15] time: 0.007273
[dim=14] time: 0.010415
[dim=13] time: 0.013874
[dim=12] time: 0.017119
[dim=11] time: 0.019707
[dim=10] time: 0.021568
[dim=9] time: 0.023188
[dim=8] time: 0.024509
[dim=7] time: 0.025481
[dim=6] time: 0.026273
[dim=5] Time of backward = 0.026814sec.
AIC: 142.653
k: 6
